70
1 0 3
2 0 4
2 1 4
3 0 5
3 1 3
3 2 3
4 0 4
4 1 1
4 2 5
4 3 3
5 0 4
5 1 3
5 2 3
5 3 1
5 4 1
6 0 4
6 1 3
6 2 3
6 3 5
6 4 3
6 5 3
7 0 3
7 1 1
7 2 2
7 3 4
7 4 2
7 5 5
7 6 3
8 0 5
8 1 3
8 2 5
8 3 1
8 4 5
8 5 5
8 6 3
8 7 3
9 0 5
9 1 5
9 2 3
9 3 3
9 4 4
9 5 3
9 6 3
9 7 2
9 8 1
10 0 1
10 1 3
10 2 1
10 3 3
10 4 5
10 5 4
10 6 4
10 7 5
10 8 5
10 9 4
11 0 1
11 1 3
11 2 5
11 3 1
11 4 5
11 5 1
11 6 4
11 7 4
11 8 1
11 9 3
11 10 2
12 0 4
12 1 5
12 2 3
12 3 2
12 4 3
12 5 3
12 6 2
12 7 4
12 8 1
12 9 2
12 10 1
12 11 4
13 0 1
13 1 4
13 2 4
13 3 2
13 4 5
13 5 3
13 6 1
13 7 2
13 8 1
13 9 5
13 10 1
13 11 4
13 12 1
14 0 2
14 1 1
14 2 5
14 3 4
14 4 3
14 5 4
14 6 2
14 7 5
14 8 5
14 9 5
14 10 1
14 11 1
14 12 5
14 13 1
15 0 3
15 1 3
15 2 2
15 3 4
15 4 5
15 5 4
15 6 4
15 7 5
15 8 2
15 9 4
15 10 2
15 11 5
15 12 5
15 13 1
15 14 5
16 0 1
16 1 3
16 2 2
16 3 1
16 4 5
16 5 2
16 6 2
16 7 1
16 8 4
16 9 3
16 10 3
16 11 5
16 12 5
16 13 1
16 14 2
16 15 3
17 0 2
17 1 2
17 2 3
17 3 1
17 4 1
17 5 2
17 6 4
17 7 4
17 8 3
17 9 2
17 10 4
17 11 3
17 12 5
17 13 1
17 14 2
17 15 1
17 16 5
18 0 2
18 1 2
18 2 2
18 3 4
18 4 1
18 5 3
18 6 5
18 7 5
18 8 4
18 9 1
18 10 4
18 11 4
18 12 2
18 13 1
18 14 2
18 15 4
18 16 4
18 17 1
19 0 5
19 1 5
19 2 2
19 3 2
19 4 1
19 5 3
19 6 2
19 7 2
19 8 2
19 9 5
19 10 5
19 11 3
19 12 5
19 13 3
19 14 1
19 15 5
19 16 3
19 17 2
19 18 5
20 0 2
20 1 2
20 2 3
20 3 5
20 4 2
20 5 5
20 6 3
20 7 4
20 8 1
20 9 1
20 10 1
20 11 2
20 12 3
20 13 2
20 14 1
20 15 1
20 16 5
20 17 3
20 18 3
20 19 2
21 0 5
21 1 3
21 2 2
21 3 3
21 4 1
21 5 4
21 6 1
21 7 4
21 8 4
21 9 2
21 10 4
21 11 4
21 12 4
21 13 2
21 14 3
21 15 4
21 16 3
21 17 2
21 18 5
21 19 5
21 20 5
22 0 3
22 1 4
22 2 2
22 3 3
22 4 3
22 5 2
22 6 4
22 7 2
22 8 5
22 9 2
22 10 5
22 11 4
22 12 3
22 13 1
22 14 1
22 15 3
22 16 5
22 17 2
22 18 2
22 19 1
22 20 5
22 21 5
23 0 1
23 1 5
23 2 4
23 3 1
23 4 2
23 5 3
23 6 3
23 7 2
23 8 3
23 9 1
23 10 5
23 11 3
23 12 4
23 13 3
23 14 2
23 15 1
23 16 2
23 17 4
23 18 1
23 19 3
23 20 2
23 21 2
23 22 3
24 0 5
24 1 3
24 2 1
24 3 3
24 4 4
24 5 5
24 6 5
24 7 5
24 8 5
24 9 1
24 10 2
24 11 1
24 12 3
24 13 1
24 14 1
24 15 3
24 16 3
24 17 4
24 18 4
24 19 3
24 20 4
24 21 2
24 22 5
24 23 5
25 0 5
25 1 3
25 2 4
25 3 5
25 4 1
25 5 4
25 6 3
25 7 1
25 8 1
25 9 4
25 10 2
25 11 5
25 12 3
25 13 1
25 14 3
25 15 5
25 16 2
25 17 1
25 18 2
25 19 3
25 20 1
25 21 4
25 22 5
25 23 3
25 24 2
26 0 2
26 1 5
26 2 1
26 3 1
26 4 2
26 5 4
26 6 4
26 7 2
26 8 3
26 9 2
26 10 5
26 11 4
26 12 5
26 13 3
26 14 4
26 15 1
26 16 1
26 17 5
26 18 2
26 19 1
26 20 1
26 21 4
26 22 5
26 23 2
26 24 2
26 25 2
27 0 3
27 1 4
27 2 3
27 3 2
27 4 3
27 5 1
27 6 5
27 7 4
27 8 2
27 9 2
27 10 5
27 11 3
27 12 2
27 13 3
27 14 3
27 15 3
27 16 1
27 17 4
27 18 2
27 19 2
27 20 4
27 21 2
27 22 4
27 23 2
27 24 4
27 25 1
27 26 5
28 0 3
28 1 4
28 2 3
28 3 5
28 4 1
28 5 4
28 6 3
28 7 2
28 8 3
28 9 5
28 10 5
28 11 1
28 12 3
28 13 5
28 14 4
28 15 2
28 16 3
28 17 5
28 18 1
28 19 3
28 20 1
28 21 4
28 22 2
28 23 1
28 24 5
28 25 3
28 26 1
28 27 4
29 0 2
29 1 1
29 2 1
29 3 4
29 4 3
29 5 3
29 6 5
29 7 1
29 8 1
29 9 4
29 10 2
29 11 2
29 12 3
29 13 3
29 14 5
29 15 4
29 16 5
29 17 5
29 18 1
29 19 4
29 20 5
29 21 4
29 22 4
29 23 2
29 24 1
29 25 2
29 26 3
29 27 3
29 28 5
30 0 1
30 1 4
30 2 3
30 3 4
30 4 3
30 5 3
30 6 5
30 7 1
30 8 2
30 9 4
30 10 5
30 11 2
30 12 5
30 13 5
30 14 3
30 15 1
30 16 3
30 17 4
30 18 2
30 19 1
30 20 1
30 21 2
30 22 4
30 23 2
30 24 2
30 25 3
30 26 1
30 27 2
30 28 3
30 29 1
31 0 4
31 1 2
31 2 2
31 3 3
31 4 2
31 5 5
31 6 2
31 7 2
31 8 4
31 9 2
31 10 4
31 11 5
31 12 1
31 13 3
31 14 2
31 15 2
31 16 1
31 17 5
31 18 4
31 19 2
31 20 2
31 21 5
31 22 3
31 23 2
31 24 1
31 25 5
31 26 3
31 27 2
31 28 2
31 29 4
31 30 2
32 0 3
32 1 1
32 2 1
32 3 3
32 4 4
32 5 1
32 6 3
32 7 3
32 8 2
32 9 4
32 10 1
32 11 3
32 12 3
32 13 4
32 14 3
32 15 4
32 16 3
32 17 1
32 18 1
32 19 1
32 20 1
32 21 1
32 22 2
32 23 1
32 24 1
32 25 2
32 26 1
32 27 4
32 28 3
32 29 1
32 30 5
32 31 4
33 0 1
33 1 3
33 2 1
33 3 3
33 4 3
33 5 2
33 6 5
33 7 4
33 8 1
33 9 4
33 10 5
33 11 5
33 12 2
33 13 4
33 14 2
33 15 4
33 16 3
33 17 5
33 18 2
33 19 2
33 20 4
33 21 4
33 22 4
33 23 5
33 24 5
33 25 1
33 26 1
33 27 4
33 28 2
33 29 4
33 30 5
33 31 2
33 32 5
34 0 3
34 1 1
34 2 4
34 3 4
34 4 1
34 5 5
34 6 1
34 7 2
34 8 1
34 9 1
34 10 5
34 11 1
34 12 4
34 13 3
34 14 3
34 15 1
34 16 5
34 17 1
34 18 2
34 19 1
34 20 5
34 21 5
34 22 1
34 23 2
34 24 3
34 25 1
34 26 1
34 27 2
34 28 1
34 29 1
34 30 1
34 31 3
34 32 1
34 33 3
35 0 2
35 1 4
35 2 4
35 3 4
35 4 5
35 5 3
35 6 3
35 7 4
35 8 2
35 9 2
35 10 5
35 11 2
35 12 4
35 13 2
35 14 4
35 15 5
35 16 1
35 17 4
35 18 3
35 19 3
35 20 4
35 21 2
35 22 4
35 23 3
35 24 2
35 25 5
35 26 5
35 27 3
35 28 3
35 29 2
35 30 2
35 31 5
35 32 5
35 33 1
35 34 2
36 0 5
36 1 3
36 2 5
36 3 4
36 4 2
36 5 4
36 6 4
36 7 2
36 8 3
36 9 5
36 10 5
36 11 1
36 12 3
36 13 3
36 14 1
36 15 1
36 16 3
36 17 4
36 18 3
36 19 1
36 20 1
36 21 3
36 22 5
36 23 5
36 24 1
36 25 4
36 26 4
36 27 3
36 28 1
36 29 1
36 30 4
36 31 3
36 32 4
36 33 3
36 34 2
36 35 2
37 0 2
37 1 5
37 2 1
37 3 3
37 4 1
37 5 3
37 6 4
37 7 1
37 8 3
37 9 5
37 10 2
37 11 4
37 12 2
37 13 2
37 14 4
37 15 2
37 16 2
37 17 3
37 18 1
37 19 1
37 20 4
37 21 1
37 22 1
37 23 3
37 24 1
37 25 2
37 26 2
37 27 5
37 28 5
37 29 4
37 30 5
37 31 1
37 32 4
37 33 1
37 34 5
37 35 2
37 36 5
38 0 1
38 1 2
38 2 2
38 3 5
38 4 1
38 5 2
38 6 3
38 7 2
38 8 4
38 9 1
38 10 2
38 11 4
38 12 2
38 13 2
38 14 3
38 15 3
38 16 5
38 17 3
38 18 1
38 19 5
38 20 2
38 21 2
38 22 1
38 23 1
38 24 5
38 25 2
38 26 1
38 27 1
38 28 4
38 29 1
38 30 3
38 31 4
38 32 2
38 33 4
38 34 4
38 35 3
38 36 3
38 37 1
39 0 2
39 1 4
39 2 4
39 3 3
39 4 5
39 5 3
39 6 3
39 7 2
39 8 3
39 9 5
39 10 1
39 11 1
39 12 2
39 13 5
39 14 4
39 15 2
39 16 5
39 17 2
39 18 1
39 19 5
39 20 4
39 21 1
39 22 5
39 23 3
39 24 4
39 25 4
39 26 2
39 27 2
39 28 4
39 29 4
39 30 4
39 31 1
39 32 2
39 33 1
39 34 2
39 35 1
39 36 1
39 37 2
39 38 5
40 0 3
40 1 2
40 2 4
40 3 2
40 4 2
40 5 5
40 6 1
40 7 5
40 8 2
40 9 2
40 10 4
40 11 3
40 12 1
40 13 5
40 14 3
40 15 4
40 16 2
40 17 4
40 18 2
40 19 4
40 20 4
40 21 2
40 22 1
40 23 2
40 24 4
40 25 4
40 26 4
40 27 4
40 28 5
40 29 3
40 30 4
40 31 3
40 32 2
40 33 3
40 34 5
40 35 1
40 36 4
40 37 2
40 38 5
40 39 3
41 0 3
41 1 5
41 2 1
41 3 3
41 4 2
41 5 2
41 6 4
41 7 3
41 8 3
41 9 5
41 10 1
41 11 4
41 12 5
41 13 3
41 14 5
41 15 1
41 16 4
41 17 1
41 18 3
41 19 2
41 20 1
41 21 5
41 22 1
41 23 1
41 24 2
41 25 1
41 26 2
41 27 4
41 28 5
41 29 2
41 30 5
41 31 1
41 32 4
41 33 5
41 34 1
41 35 5
41 36 4
41 37 3
41 38 2
41 39 2
41 40 4
42 0 2
42 1 2
42 2 3
42 3 4
42 4 1
42 5 2
42 6 1
42 7 1
42 8 3
42 9 3
42 10 3
42 11 2
42 12 3
42 13 2
42 14 5
42 15 3
42 16 4
42 17 4
42 18 3
42 19 2
42 20 2
42 21 4
42 22 2
42 23 5
42 24 5
42 25 3
42 26 5
42 27 1
42 28 1
42 29 5
42 30 3
42 31 1
42 32 2
42 33 1
42 34 3
42 35 1
42 36 4
42 37 5
42 38 3
42 39 3
42 40 3
42 41 1
43 0 4
43 1 3
43 2 4
43 3 1
43 4 2
43 5 5
43 6 2
43 7 2
43 8 5
43 9 3
43 10 3
43 11 3
43 12 3
43 13 2
43 14 2
43 15 4
43 16 3
43 17 1
43 18 5
43 19 5
43 20 5
43 21 1
43 22 3
43 23 5
43 24 4
43 25 1
43 26 1
43 27 4
43 28 5
43 29 5
43 30 2
43 31 1
43 32 3
43 33 1
43 34 2
43 35 5
43 36 3
43 37 3
43 38 1
43 39 4
43 40 5
43 41 2
43 42 4
44 0 2
44 1 1
44 2 2
44 3 5
44 4 4
44 5 2
44 6 3
44 7 1
44 8 3
44 9 5
44 10 3
44 11 3
44 12 2
44 13 1
44 14 3
44 15 4
44 16 1
44 17 4
44 18 4
44 19 2
44 20 2
44 21 3
44 22 2
44 23 4
44 24 2
44 25 1
44 26 5
44 27 5
44 28 3
44 29 2
44 30 3
44 31 3
44 32 4
44 33 4
44 34 2
44 35 5
44 36 2
44 37 2
44 38 1
44 39 3
44 40 2
44 41 5
44 42 2
44 43 3
45 0 3
45 1 3
45 2 1
45 3 2
45 4 2
45 5 2
45 6 5
45 7 1
45 8 5
45 9 2
45 10 2
45 11 3
45 12 2
45 13 5
45 14 3
45 15 1
45 16 1
45 17 3
45 18 2
45 19 1
45 20 1
45 21 1
45 22 5
45 23 1
45 24 2
45 25 5
45 26 4
45 27 1
45 28 1
45 29 3
45 30 3
45 31 5
45 32 2
45 33 5
45 34 3
45 35 4
45 36 3
45 37 4
45 38 2
45 39 5
45 40 5
45 41 5
45 42 5
45 43 2
45 44 2
46 0 2
46 1 1
46 2 1
46 3 5
46 4 5
46 5 3
46 6 2
46 7 3
46 8 1
46 9 4
46 10 4
46 11 2
46 12 4
46 13 5
46 14 3
46 15 5
46 16 5
46 17 3
46 18 5
46 19 3
46 20 4
46 21 5
46 22 1
46 23 3
46 24 2
46 25 5
46 26 2
46 27 1
46 28 3
46 29 1
46 30 2
46 31 4
46 32 1
46 33 2
46 34 1
46 35 3
46 36 1
46 37 2
46 38 5
46 39 3
46 40 2
46 41 3
46 42 3
46 43 1
46 44 1
46 45 1
47 0 2
47 1 1
47 2 1
47 3 1
47 4 4
47 5 1
47 6 2
47 7 4
47 8 4
47 9 4
47 10 1
47 11 2
47 12 3
47 13 1
47 14 3
47 15 5
47 16 3
47 17 3
47 18 2
47 19 2
47 20 3
47 21 5
47 22 1
47 23 4
47 24 3
47 25 4
47 26 4
47 27 1
47 28 5
47 29 4
47 30 1
47 31 4
47 32 2
47 33 1
47 34 4
47 35 5
47 36 5
47 37 2
47 38 4
47 39 5
47 40 5
47 41 2
47 42 5
47 43 5
47 44 4
47 45 5
47 46 3
48 0 1
48 1 1
48 2 5
48 3 3
48 4 1
48 5 1
48 6 3
48 7 5
48 8 2
48 9 3
48 10 1
48 11 4
48 12 3
48 13 2
48 14 2
48 15 5
48 16 5
48 17 3
48 18 3
48 19 1
48 20 5
48 21 5
48 22 3
48 23 2
48 24 1
48 25 5
48 26 5
48 27 3
48 28 4
48 29 2
48 30 5
48 31 5
48 32 1
48 33 3
48 34 2
48 35 4
48 36 3
48 37 5
48 38 2
48 39 3
48 40 5
48 41 4
48 42 1
48 43 4
48 44 3
48 45 5
48 46 1
48 47 2
49 0 3
49 1 2
49 2 1
49 3 3
49 4 2
49 5 5
49 6 1
49 7 3
49 8 2
49 9 3
49 10 4
49 11 1
49 12 1
49 13 4
49 14 2
49 15 5
49 16 5
49 17 4
49 18 1
49 19 1
49 20 2
49 21 5
49 22 3
49 23 2
49 24 5
49 25 3
49 26 2
49 27 2
49 28 2
49 29 1
49 30 2
49 31 5
49 32 3
49 33 1
49 34 1
49 35 3
49 36 3
49 37 4
49 38 1
49 39 1
49 40 3
49 41 1
49 42 2
49 43 3
49 44 3
49 45 4
49 46 2
49 47 2
49 48 1
50 0 5
50 1 4
50 2 2
50 3 2
50 4 2
50 5 1
50 6 5
50 7 1
50 8 2
50 9 3
50 10 5
50 11 4
50 12 2
50 13 3
50 14 4
50 15 4
50 16 2
50 17 3
50 18 4
50 19 5
50 20 5
50 21 1
50 22 4
50 23 4
50 24 5
50 25 1
50 26 4
50 27 5
50 28 3
50 29 3
50 30 3
50 31 3
50 32 3
50 33 1
50 34 3
50 35 1
50 36 3
50 37 4
50 38 5
50 39 1
50 40 2
50 41 2
50 42 1
50 43 5
50 44 3
50 45 3
50 46 2
50 47 5
50 48 1
50 49 3
51 0 2
51 1 2
51 2 3
51 3 1
51 4 5
51 5 2
51 6 2
51 7 4
51 8 3
51 9 4
51 10 1
51 11 2
51 12 3
51 13 5
51 14 4
51 15 3
51 16 4
51 17 2
51 18 3
51 19 1
51 20 5
51 21 3
51 22 5
51 23 4
51 24 5
51 25 5
51 26 3
51 27 1
51 28 1
51 29 5
51 30 5
51 31 4
51 32 1
51 33 3
51 34 2
51 35 1
51 36 4
51 37 2
51 38 2
51 39 4
51 40 2
51 41 4
51 42 2
51 43 5
51 44 5
51 45 3
51 46 4
51 47 4
51 48 4
51 49 1
51 50 2
52 0 1
52 1 5
52 2 5
52 3 2
52 4 3
52 5 1
52 6 1
52 7 3
52 8 5
52 9 1
52 10 2
52 11 2
52 12 5
52 13 3
52 14 1
52 15 4
52 16 2
52 17 1
52 18 2
52 19 4
52 20 2
52 21 3
52 22 1
52 23 5
52 24 2
52 25 5
52 26 4
52 27 3
52 28 4
52 29 3
52 30 2
52 31 4
52 32 4
52 33 5
52 34 5
52 35 2
52 36 5
52 37 4
52 38 1
52 39 2
52 40 5
52 41 4
52 42 5
52 43 1
52 44 2
52 45 3
52 46 2
52 47 5
52 48 1
52 49 5
52 50 4
52 51 5
53 0 2
53 1 3
53 2 3
53 3 3
53 4 2
53 5 3
53 6 1
53 7 3
53 8 2
53 9 2
53 10 2
53 11 5
53 12 2
53 13 4
53 14 2
53 15 5
53 16 5
53 17 2
53 18 2
53 19 3
53 20 1
53 21 3
53 22 1
53 23 4
53 24 1
53 25 1
53 26 4
53 27 3
53 28 5
53 29 4
53 30 4
53 31 3
53 32 3
53 33 1
53 34 1
53 35 3
53 36 5
53 37 1
53 38 5
53 39 3
53 40 4
53 41 3
53 42 5
53 43 2
53 44 1
53 45 4
53 46 1
53 47 5
53 48 5
53 49 1
53 50 4
53 51 4
53 52 3
54 0 3
54 1 4
54 2 4
54 3 1
54 4 2
54 5 4
54 6 4
54 7 3
54 8 4
54 9 1
54 10 5
54 11 3
54 12 5
54 13 1
54 14 2
54 15 2
54 16 3
54 17 3
54 18 5
54 19 2
54 20 2
54 21 2
54 22 2
54 23 1
54 24 1
54 25 2
54 26 3
54 27 5
54 28 2
54 29 2
54 30 3
54 31 1
54 32 3
54 33 4
54 34 3
54 35 2
54 36 3
54 37 1
54 38 3
54 39 2
54 40 4
54 41 1
54 42 5
54 43 3
54 44 5
54 45 3
54 46 2
54 47 3
54 48 3
54 49 5
54 50 1
54 51 4
54 52 2
54 53 3
55 0 1
55 1 3
55 2 5
55 3 1
55 4 5
55 5 2
55 6 4
55 7 4
55 8 4
55 9 1
55 10 2
55 11 4
55 12 3
55 13 3
55 14 5
55 15 3
55 16 4
55 17 2
55 18 5
55 19 2
55 20 4
55 21 4
55 22 5
55 23 3
55 24 2
55 25 4
55 26 1
55 27 2
55 28 3
55 29 3
55 30 2
55 31 4
55 32 5
55 33 3
55 34 5
55 35 3
55 36 4
55 37 2
55 38 2
55 39 3
55 40 4
55 41 1
55 42 1
55 43 3
55 44 5
55 45 2
55 46 4
55 47 5
55 48 4
55 49 2
55 50 2
55 51 2
55 52 1
55 53 2
55 54 1
56 0 2
56 1 1
56 2 4
56 3 2
56 4 1
56 5 4
56 6 5
56 7 4
56 8 5
56 9 3
56 10 5
56 11 5
56 12 2
56 13 2
56 14 2
56 15 2
56 16 5
56 17 2
56 18 2
56 19 5
56 20 3
56 21 1
56 22 3
56 23 5
56 24 1
56 25 3
56 26 4
56 27 1
56 28 2
56 29 4
56 30 3
56 31 3
56 32 5
56 33 4
56 34 4
56 35 4
56 36 1
56 37 2
56 38 2
56 39 2
56 40 2
56 41 1
56 42 5
56 43 4
56 44 2
56 45 3
56 46 2
56 47 4
56 48 5
56 49 1
56 50 5
56 51 3
56 52 2
56 53 1
56 54 4
56 55 3
57 0 3
57 1 2
57 2 3
57 3 2
57 4 1
57 5 5
57 6 4
57 7 2
57 8 4
57 9 2
57 10 1
57 11 3
57 12 3
57 13 5
57 14 2
57 15 2
57 16 3
57 17 3
57 18 2
57 19 4
57 20 3
57 21 1
57 22 1
57 23 5
57 24 2
57 25 5
57 26 4
57 27 2
57 28 4
57 29 3
57 30 4
57 31 3
57 32 5
57 33 5
57 34 1
57 35 2
57 36 2
57 37 1
57 38 4
57 39 5
57 40 1
57 41 2
57 42 4
57 43 5
57 44 2
57 45 5
57 46 5
57 47 1
57 48 4
57 49 2
57 50 5
57 51 1
57 52 1
57 53 2
57 54 4
57 55 5
57 56 4
58 0 4
58 1 3
58 2 2
58 3 2
58 4 4
58 5 1
58 6 3
58 7 5
58 8 2
58 9 1
58 10 1
58 11 5
58 12 1
58 13 4
58 14 3
58 15 4
58 16 4
58 17 1
58 18 2
58 19 5
58 20 4
58 21 3
58 22 5
58 23 4
58 24 2
58 25 5
58 26 3
58 27 4
58 28 1
58 29 2
58 30 2
58 31 1
58 32 3
58 33 4
58 34 1
58 35 3
58 36 1
58 37 1
58 38 5
58 39 5
58 40 3
58 41 3
58 42 5
58 43 2
58 44 4
58 45 3
58 46 2
58 47 1
58 48 2
58 49 3
58 50 2
58 51 4
58 52 3
58 53 3
58 54 3
58 55 3
58 56 4
58 57 2
59 0 2
59 1 4
59 2 4
59 3 3
59 4 2
59 5 2
59 6 4
59 7 4
59 8 2
59 9 3
59 10 1
59 11 2
59 12 3
59 13 4
59 14 4
59 15 4
59 16 5
59 17 1
59 18 4
59 19 5
59 20 5
59 21 1
59 22 5
59 23 3
59 24 3
59 25 2
59 26 5
59 27 2
59 28 1
59 29 2
59 30 4
59 31 2
59 32 5
59 33 1
59 34 2
59 35 1
59 36 1
59 37 2
59 38 1
59 39 2
59 40 5
59 41 1
59 42 3
59 43 3
59 44 3
59 45 1
59 46 5
59 47 1
59 48 3
59 49 2
59 50 2
59 51 1
59 52 3
59 53 1
59 54 3
59 55 4
59 56 5
59 57 4
59 58 3
60 0 4
60 1 3
60 2 2
60 3 4
60 4 1
60 5 3
60 6 5
60 7 4
60 8 1
60 9 3
60 10 3
60 11 4
60 12 2
60 13 4
60 14 3
60 15 1
60 16 3
60 17 1
60 18 3
60 19 2
60 20 5
60 21 1
60 22 1
60 23 2
60 24 1
60 25 3
60 26 3
60 27 3
60 28 2
60 29 3
60 30 1
60 31 1
60 32 5
60 33 5
60 34 2
60 35 4
60 36 4
60 37 4
60 38 1
60 39 4
60 40 2
60 41 3
60 42 2
60 43 2
60 44 2
60 45 4
60 46 5
60 47 1
60 48 1
60 49 2
60 50 2
60 51 3
60 52 5
60 53 3
60 54 4
60 55 5
60 56 4
60 57 2
60 58 5
60 59 3
61 0 1
61 1 1
61 2 2
61 3 5
61 4 1
61 5 5
61 6 2
61 7 5
61 8 4
61 9 3
61 10 1
61 11 3
61 12 5
61 13 3
61 14 5
61 15 5
61 16 4
61 17 5
61 18 1
61 19 2
61 20 5
61 21 4
61 22 3
61 23 1
61 24 2
61 25 1
61 26 4
61 27 1
61 28 3
61 29 1
61 30 4
61 31 2
61 32 3
61 33 2
61 34 2
61 35 4
61 36 4
61 37 5
61 38 2
61 39 2
61 40 1
61 41 1
61 42 3
61 43 2
61 44 1
61 45 1
61 46 3
61 47 3
61 48 1
61 49 5
61 50 5
61 51 3
61 52 4
61 53 2
61 54 3
61 55 4
61 56 4
61 57 2
61 58 2
61 59 3
61 60 2
62 0 2
62 1 4
62 2 5
62 3 5
62 4 1
62 5 4
62 6 5
62 7 3
62 8 4
62 9 3
62 10 1
62 11 3
62 12 5
62 13 5
62 14 4
62 15 5
62 16 2
62 17 1
62 18 1
62 19 3
62 20 4
62 21 1
62 22 4
62 23 1
62 24 1
62 25 2
62 26 2
62 27 1
62 28 3
62 29 1
62 30 1
62 31 3
62 32 3
62 33 3
62 34 2
62 35 3
62 36 5
62 37 1
62 38 5
62 39 3
62 40 5
62 41 4
62 42 3
62 43 5
62 44 4
62 45 4
62 46 3
62 47 5
62 48 2
62 49 1
62 50 5
62 51 3
62 52 5
62 53 5
62 54 4
62 55 4
62 56 3
62 57 4
62 58 5
62 59 2
62 60 4
62 61 3
63 0 2
63 1 1
63 2 2
63 3 4
63 4 2
63 5 2
63 6 2
63 7 3
63 8 1
63 9 1
63 10 4
63 11 1
63 12 2
63 13 5
63 14 4
63 15 1
63 16 2
63 17 2
63 18 4
63 19 2
63 20 1
63 21 3
63 22 5
63 23 5
63 24 1
63 25 4
63 26 3
63 27 1
63 28 2
63 29 4
63 30 3
63 31 1
63 32 2
63 33 3
63 34 2
63 35 3
63 36 1
63 37 4
63 38 5
63 39 2
63 40 1
63 41 1
63 42 4
63 43 4
63 44 1
63 45 2
63 46 3
63 47 4
63 48 4
63 49 1
63 50 1
63 51 1
63 52 4
63 53 5
63 54 3
63 55 4
63 56 3
63 57 5
63 58 5
63 59 2
63 60 1
63 61 5
63 62 3
64 0 2
64 1 2
64 2 3
64 3 3
64 4 3
64 5 3
64 6 3
64 7 5
64 8 2
64 9 2
64 10 4
64 11 4
64 12 4
64 13 3
64 14 4
64 15 5
64 16 4
64 17 4
64 18 1
64 19 5
64 20 1
64 21 3
64 22 5
64 23 5
64 24 1
64 25 4
64 26 1
64 27 1
64 28 3
64 29 1
64 30 1
64 31 1
64 32 5
64 33 5
64 34 2
64 35 5
64 36 3
64 37 4
64 38 4
64 39 3
64 40 3
64 41 5
64 42 2
64 43 2
64 44 4
64 45 2
64 46 5
64 47 3
64 48 1
64 49 2
64 50 5
64 51 2
64 52 3
64 53 2
64 54 3
64 55 5
64 56 2
64 57 5
64 58 5
64 59 2
64 60 5
64 61 4
64 62 1
64 63 3
65 0 2
65 1 2
65 2 4
65 3 3
65 4 4
65 5 3
65 6 2
65 7 4
65 8 5
65 9 1
65 10 3
65 11 5
65 12 2
65 13 5
65 14 3
65 15 5
65 16 2
65 17 4
65 18 1
65 19 4
65 20 5
65 21 3
65 22 3
65 23 3
65 24 5
65 25 4
65 26 5
65 27 3
65 28 2
65 29 3
65 30 2
65 31 5
65 32 5
65 33 2
65 34 4
65 35 1
65 36 3
65 37 1
65 38 1
65 39 3
65 40 1
65 41 3
65 42 2
65 43 1
65 44 5
65 45 2
65 46 2
65 47 2
65 48 2
65 49 3
65 50 5
65 51 5
65 52 4
65 53 4
65 54 4
65 55 5
65 56 2
65 57 1
65 58 3
65 59 3
65 60 1
65 61 4
65 62 1
65 63 2
65 64 2
66 0 4
66 1 4
66 2 2
66 3 5
66 4 1
66 5 2
66 6 4
66 7 2
66 8 1
66 9 1
66 10 1
66 11 3
66 12 1
66 13 1
66 14 5
66 15 3
66 16 1
66 17 4
66 18 1
66 19 3
66 20 3
66 21 3
66 22 5
66 23 3
66 24 1
66 25 5
66 26 4
66 27 3
66 28 3
66 29 2
66 30 3
66 31 5
66 32 3
66 33 4
66 34 4
66 35 1
66 36 2
66 37 1
66 38 4
66 39 4
66 40 2
66 41 2
66 42 2
66 43 2
66 44 3
66 45 1
66 46 4
66 47 5
66 48 4
66 49 1
66 50 2
66 51 5
66 52 1
66 53 5
66 54 2
66 55 2
66 56 1
66 57 3
66 58 1
66 59 2
66 60 5
66 61 2
66 62 2
66 63 5
66 64 3
66 65 1
67 0 1
67 1 3
67 2 5
67 3 2
67 4 3
67 5 2
67 6 1
67 7 5
67 8 3
67 9 4
67 10 4
67 11 5
67 12 3
67 13 2
67 14 3
67 15 1
67 16 5
67 17 3
67 18 1
67 19 1
67 20 4
67 21 1
67 22 4
67 23 5
67 24 4
67 25 1
67 26 5
67 27 4
67 28 1
67 29 1
67 30 1
67 31 3
67 32 3
67 33 5
67 34 1
67 35 3
67 36 4
67 37 1
67 38 2
67 39 4
67 40 4
67 41 2
67 42 2
67 43 2
67 44 5
67 45 4
67 46 1
67 47 1
67 48 3
67 49 2
67 50 5
67 51 5
67 52 5
67 53 5
67 54 2
67 55 1
67 56 4
67 57 1
67 58 2
67 59 4
67 60 1
67 61 2
67 62 1
67 63 4
67 64 1
67 65 1
67 66 1
68 0 4
68 1 3
68 2 2
68 3 4
68 4 2
68 5 3
68 6 1
68 7 3
68 8 5
68 9 3
68 10 4
68 11 2
68 12 4
68 13 5
68 14 5
68 15 2
68 16 4
68 17 3
68 18 5
68 19 4
68 20 4
68 21 4
68 22 5
68 23 2
68 24 1
68 25 3
68 26 5
68 27 3
68 28 3
68 29 1
68 30 1
68 31 1
68 32 4
68 33 1
68 34 2
68 35 3
68 36 1
68 37 5
68 38 1
68 39 3
68 40 4
68 41 3
68 42 3
68 43 2
68 44 2
68 45 1
68 46 5
68 47 4
68 48 4
68 49 4
68 50 1
68 51 1
68 52 4
68 53 1
68 54 3
68 55 4
68 56 1
68 57 2
68 58 1
68 59 4
68 60 3
68 61 5
68 62 4
68 63 3
68 64 2
68 65 3
68 66 4
68 67 3
69 0 3
69 1 5
69 2 5
69 3 1
69 4 4
69 5 3
69 6 3
69 7 4
69 8 3
69 9 1
69 10 3
69 11 3
69 12 2
69 13 3
69 14 4
69 15 4
69 16 5
69 17 4
69 18 2
69 19 4
69 20 5
69 21 4
69 22 3
69 23 5
69 24 3
69 25 4
69 26 1
69 27 4
69 28 2
69 29 4
69 30 2
69 31 3
69 32 1
69 33 5
69 34 4
69 35 2
69 36 4
69 37 5
69 38 1
69 39 5
69 40 3
69 41 5
69 42 5
69 43 4
69 44 4
69 45 1
69 46 3
69 47 2
69 48 1
69 49 4
69 50 3
69 51 5
69 52 2
69 53 3
69 54 2
69 55 1
69 56 1
69 57 3
69 58 3
69 59 1
69 60 3
69 61 4
69 62 1
69 63 4
69 64 3
69 65 5
69 66 4
69 67 2
69 68 3
